Optimal - objective value 1338.00000000
      0 x_0                     1         8.90055248618785
      4 x_4                     1                       0
      9 x_9                     1                       0
     14 x_14                    1                     -13
     17 x_17                    1                      16
     24 x_24                    1         12.7651933701657
     26 x_26                    1         19.8370165745857
     33 x_33                    1                       0
     38 x_38                    1                       0
     40 x_40                    1                       0
     43 x_43                    1         -3.66022099447513
     48 x_48                    1                       0
     54 x_54                    1                       0
     60 x_60                    1                       0
     65 x_65                    1         0.124309392265218
     70 x_70                    1                       0
     73 x_73                    1                       0
     81 x_81                    1                       0
     83 x_83                    1                      11
     87 x_87                    1                       0
     92 x_92                    1         5.42541436464087
     93 x_93                    1                       0
     97 x_97                    1                       0
    101 x_101                   1                       6
    109 x_109                   1                       0
    113 x_113                   1                       0
    118 x_118                   1                      -2
    122 x_122                   1                       0
    125 x_125                   1         -11.5635359116022
    132 x_132                   1         14.9516574585635
    140 x_140                   1         -14.6795580110497
    144 x_144                   1                       0
    147 x_147                   1                       0
    150 x_150                   1                       0
    156 x_156                   1                       0
    161 x_161                   1                       0
    164 x_164                   1                       0
    169 x_169                   1                       0
    173 x_173                   1                       0
    178 x_178                   1                       0
    181 x_181                   1                       0
    186 x_186                   1                       0
    189 x_189                   1                       0
    192 x_192                   1                       0
    196 x_196                   1         4.5096685082873
    200 x_200                   1                       5
    206 x_206                   1         10.8301104972376
    212 x_212                   1                       0
    215 x_215                   1                     -16
    219 x_219                   1                      -3
    223 x_223                   1                       0
    227 x_227                   1         -18.5290055248619
    230 x_230                   1         -9.01933701657456
    239 x_239                   1         -19.2265193370166
    241 x_241                   1                       0
    245 x_245                   1         -6.40055248618786
    255 x_255                   1                       0
    258 x_258                   1                       0
    263 x_263                   1                       0
    265 x_265                   1                       0
    267 x_267                   1                      10
    273 x_273                   1                       0
    278 x_278                   1                       0
    281 x_281                   1                       0
    286 x_286                   1         21.1698895027624
    287 x_287                   1         -4.28314917127072
    294 x_294                   1                       0
    299 x_299                   1                       0
    302 x_302                   1                       0
    306 x_306                   1                       0
    310 x_310                   1                       0
    312 x_312                   1         -0.361878453038727
    318 x_318                   1         7.11325966850829
    323 x_323                   1         9.58839779005527
    331 x_331                   1         11.6795580110497
    334 x_334                   1                      16
    340 x_340                   1                       0
    345 x_345                   1         -17.4640883977901
    350 x_350                   1                       0
    357 x_357                   1         -20.9558011049724
Optimal - objective value 1338.00000000
      0 x_0                     1         8.90055248618785
      4 x_4                     1                       0
      9 x_9                     1                       0
     14 x_14                    1                     -13
     17 x_17                    1                      16
     24 x_24                    1         12.7651933701657
     26 x_26                    1         19.8370165745857
     33 x_33                    1                       0
     38 x_38                    1                       0
     40 x_40                    1                       0
     43 x_43                    1         -3.66022099447513
     48 x_48                    1                       0
     54 x_54                    1                       0
     60 x_60                    1                       0
     65 x_65                    1         0.124309392265218
     70 x_70                    1                       0
     73 x_73                    1                       0
     81 x_81                    1                       0
     83 x_83                    1                      11
     87 x_87                    1                       0
     92 x_92                    1         5.42541436464087
     93 x_93                    1                       0
     97 x_97                    1                       0
    101 x_101                   1                       6
    109 x_109                   1                       0
    113 x_113                   1                       0
    118 x_118                   1                      -2
    122 x_122                   1                       0
    125 x_125                   1         -11.5635359116022
    132 x_132                   1         14.9516574585635
    140 x_140                   1         -14.6795580110497
    144 x_144                   1                       0
    147 x_147                   1                       0
    150 x_150                   1                       0
    156 x_156                   1                       0
    161 x_161                   1                       0
    164 x_164                   1                       0
    169 x_169                   1                       0
    173 x_173                   1                       0
    178 x_178                   1                       0
    181 x_181                   1                       0
    186 x_186                   1                       0
    189 x_189                   1                       0
    192 x_192                   1                       0
    196 x_196                   1         4.5096685082873
    200 x_200                   1                       5
    206 x_206                   1         10.8301104972376
    212 x_212                   1                       0
    215 x_215                   1                     -16
    219 x_219                   1                      -3
    223 x_223                   1                       0
    227 x_227                   1         -18.5290055248619
    230 x_230                   1         -9.01933701657456
    239 x_239                   1         -19.2265193370166
    241 x_241                   1                       0
    245 x_245                   1         -6.40055248618786
    255 x_255                   1                       0
    258 x_258                   1                       0
    263 x_263                   1                       0
    265 x_265                   1                       0
    267 x_267                   1                      10
    273 x_273                   1                       0
    278 x_278                   1                       0
    281 x_281                   1                       0
    286 x_286                   1         21.1698895027624
    287 x_287                   1         -4.28314917127072
    294 x_294                   1                       0
    299 x_299                   1                       0
    302 x_302                   1                       0
    306 x_306                   1                       0
    310 x_310                   1                       0
    312 x_312                   1         -0.361878453038727
    318 x_318                   1         7.11325966850829
    323 x_323                   1         9.58839779005527
    331 x_331                   1         11.6795580110497
    334 x_334                   1                      16
    340 x_340                   1                       0
    345 x_345                   1         -17.4640883977901
    350 x_350                   1                       0
    357 x_357                   1         -20.9558011049724
